3 40 1 10
12 18 14 12 18 11 19 13 3 7 7 8 16 15 6 9 9 14 20 10 10 17 12 8 5 16 3 20 19 14 16 5 3 6 19 15 18 14 7 3 
7.04 2.21 1.07 6.68 1.99 7.46 7.04 1.48 4.21 6.34 3.29 2.9 2.41 5.32 1.74 1.78 1.42 1.15 3.61 3.03 4 6.35 0.69 6.98 5.87 3.26 0.72 2.2 1.13 5.89 7.12 1.39 3 0.38 1.04 3.76 3.14 6.05 1.36 2.98 
4 4 4 4 4 4 4 4 4 4 4 4 4 4 4 4 4 4 4 4 4 4 4 4 4 4 4 4 4 4 4 4 4 4 4 4 4 4 4 4 
0.96 1.53 7.86 0.91 0.68 1.16 5.95 2.62 3.6 5.44 1.84 4.04 7.04 7.07 4.17 0.62 0.38 4.84 3.06 6.6 4.91 2.79 3.4 2.31 2.39 2.35 2.63 7.29 2.42 1.19 3.81 5.04 7.98 3.92 7.36 3.6 4.31 0.46 7.11 4.6 
1 1 1 1 1 1 1 1 1 1 1 1 1 1 1 1 1 1 1 1 1 1 1 1 1 1 1 1 1 1 1 1 1 1 1 1 1 1 1 1 
1 1 1 1 1 1 1 1 1 1 1 1 1 1 1 1 1 1 1 1 1 1 1 1 1 1 1 1 1 1 1 1 1 1 1 1 1 1 1 1 
1 1 1 1 1 1 1 1 1 1 1 1 1 1 1 1 1 1 1 1 1 1 1 1 1 1 1 1 1 1 1 1 1 1 1 1 1 1 1 1 
0.01 0.01 0.01 0.01 0.01 0.01 0.01 0.01 0.01 0.01 0.01 0.01 0.01 0.01 0.01 0.01 0.01 0.01 0.01 0.01 0.01 0.01 0.01 0.01 0.01 0.01 0.01 0.01 0.01 0.01 0.01 0.01 0.01 0.01 0.01 0.01 0.01 0.01 0.01 0.01 
0.02 0.02 0.02 0.02 0.02 0.02 0.02 0.02 0.02 0.02 0.02 0.02 0.02 0.02 0.02 0.02 0.02 0.02 0.02 0.02 0.02 0.02 0.02 0.02 0.02 0.02 0.02 0.02 0.02 0.02 0.02 0.02 0.02 0.02 0.02 0.02 0.02 0.02 0.02 0.02 
1 1 1 1 1 1 1 1 1 1 1 1 1 1 1 1 1 1 1 1 1 1 1 1 1 1 1 1 1 1 1 1 1 1 1 1 1 1 1 1 
